c 152_4_checker_6cl.cnf
c
c field = 152
c formula set type = 4_checker_6cl
c
p cnf 6 12
304 
306 
308 
310 
-300 
-312 
305 
307 
309 
311 
-301 
-313 
182 
212 
242 
272 
-152 
-332 
183 
213 
243 
273 
-153 
-333 
212 
242 
272 
332 
-182 
-362 
213 
243 
273 
333 
-183 
-363 
242 
272 
332 
362 
-212 
-392 
243 
273 
333 
363 
-213 
-393 
272 
332 
362 
392 
-242 
-422 
273 
333 
363 
393 
-243 
-423 
190 
218 
246 
274 
-162 
-330 
191 
219 
247 
275 
-163 
-331 
